NAME: tsp_file.tsp
COMMENT: TSP file generated by Python
TYPE: TSP
DIMENSION: 30
EDGE_WEIGHT_TYPE: EUC_2D
NODE_COORD_SECTION
1 79 58
2 25 3
3 99 53
4 26 53
5 29 92
6 81 12
7 52 43
8 10 37
9 41 63
10 61 8
11 48 10
12 99 2
13 27 6
14 70 41
15 77 55
16 92 82
17 74 33
18 61 2
19 46 59
20 65 15
21 28 21
22 49 57
23 36 87
24 24 81
25 90 94
26 26 14
27 72 7
28 2 8
29 68 49
30 56 52
EOF
